50	100	100	100
22	95	97
25	84	74
28	91	81
19	83	78
43	96	84
19	89	69
24	99	70
31	69	89
45	93	67
19	88	73
39	87	88
33	78	85
34	71	88
12	90	72
40	80	93
31	68	84
47	71	72
6	69	91
49	96	69
42	90	94
19	66	78
21	71	88
34	80	71
10	71	89
13	92	71
13	73	98
6	75	86
46	83	84
30	86	98
8	66	98
13	72	92
44	95	70
48	86	86
40	91	77
7	66	83
11	90	67
2	87	92
49	91	91
28	92	94
6	83	88
12	71	90
13	71	99
14	79	66
39	89	81
27	96	93
14	68	74
49	74	89
39	83	93
38	95	92
21	89	75
